sat
(:added-eqs                       250
 :arith-eq-adapter                73
 :arith-bound-propagations-lp     13
 :arith-branch                    2
 :arith-conflicts                 94
 :arith-diseq                     69
 :arith-fixed-eqs                 8
 :arith-gcd-calls                 22
 :arith-grobner-calls             20
 :arith-grobner-conflicts         10
 :arith-horner-calls              6
 :arith-horner-conflicts          1
 :arith-horner-cross-nested-forms 1430
 :arith-lower                     132
 :arith-make-feasible             155
 :arith-max-columns               671
 :arith-max-rows                  284
 :arith-nla-add-bounds            3
 :arith-nla-lemmas                66
 :arith-nla-propagate-bounds      22
 :arith-nla-propagate-eq          223
 :arith-nra-calls                 2
 :arith-offset-eqs                10
 :arith-patches                   22
 :arith-patches-success           20
 :arith-upper                     169
 :binary-propagations             231
 :conflicts                       8
 :decisions                       217
 :del-clause                      45
 :final-checks                    39
 :max-memory                      288.62
 :memory                          169.88
 :mk-bool-var                     605
 :mk-clause                       213
 :mk-clause-binary                936
 :nlsat-conflicts                 189
 :nlsat-decisions                 35
 :nlsat-propagations              9050
 :nlsat-restarts                  5
 :nlsat-stages                    7702
 :num-allocs                      1769273767
 :num-checks                      1
 :propagations                    310
 :rlimit-count                    2075395
 :sat-backjumps                   501
 :sat-conflicts                   501
 :sat-decisions                   1364
 :sat-del-clause                  137555
 :sat-elim-bool-vars-res          26019
 :sat-elim-literals               2447
 :sat-minimized-lits              1988
 :sat-mk-clause-2ary              80901
 :sat-mk-clause-3ary              35216
 :sat-mk-clause-nary              221137
 :sat-mk-var                      54864
 :sat-probing-assigned            54
 :sat-propagations-2ary           380337
 :sat-propagations-nary           287056
 :sat-restarts                    36
 :sat-scc-elim-binary             340
 :sat-scc-elim-vars               70
 :sat-subs-resolution             2233
 :sat-subs-resolution-dyn         149
 :sat-subsumed                    29039
 :sat-units                       72
 :time                            1.59
 :total-time                      1.60)
